p tw 140 148
1 2
2 53
3 14
4 5
5 6
6 7
6 17
7 8
8 9
9 10
10 11
11 12
12 13
13 15
14 25
15 16
16 5
17 18
18 19
19 20
20 21
21 22
22 23
23 24
24 26
25 36
26 27
27 28
28 29
29 30
30 31
31 32
32 33
32 43
33 34
34 35
35 37
36 47
37 38
38 39
39 40
40 41
41 42
42 31
43 44
44 45
45 46
47 48
48 49
49 50
50 51
51 52
52 54
52 112
53 64
54 55
55 56
56 57
57 58
58 59
59 60
60 61
61 62
62 63
63 65
64 75
65 66
65 78
66 67
67 68
68 69
69 70
70 71
71 72
72 73
73 74
74 76
75 86
76 77
77 102
78 79
79 80
80 81
81 82
82 83
83 84
84 85
84 91
85 87
86 97
87 88
88 89
89 90
90 91
91 92
92 93
93 94
93 102
94 95
95 96
96 98
97 108
98 99
99 100
100 101
101 102
102 103
103 104
104 105
105 106
105 109
106 107
107 109
108 119
109 110
110 111
111 50
112 113
113 114
114 115
115 116
116 117
117 118
118 120
118 125
119 130
120 121
121 122
122 123
123 124
124 125
125 126
126 127
127 128
128 129
129 131
130 3
131 132
132 133
133 134
134 135
135 136
136 137
137 138
137 140
138 139
139 140
140 4
